c nIsolatedPIs 0
c maxPI 32
p cnf 99 202
c gate 33 -10 26 0
-10 -33 0
26 -33 0
10 -26 33 0
c gate 34 9 -25 0
9 -34 0
-25 -34 0
-9 25 34 0
c gate 35 -9 -25 0
-9 -35 0
-25 -35 0
9 25 35 0
c gate 36 9 25 0
9 -36 0
25 -36 0
-9 -25 36 0
c gate 37 -35 -36 0
-35 -37 0
-36 -37 0
35 36 37 0
c gate 38 -2 18 0
-2 -38 0
18 -38 0
2 -18 38 0
c gate 39 -1 17 0
-1 -39 0
17 -39 0
1 -17 39 0
c gate 40 -38 -39 0
-38 -40 0
-39 -40 0
38 39 40 0
c gate 41 2 -18 0
2 -41 0
-18 -41 0
-2 18 41 0
c gate 42 3 -19 0
3 -42 0
-19 -42 0
-3 19 42 0
c gate 43 -41 -42 0
-41 -43 0
-42 -43 0
41 42 43 0
c gate 44 -40 43 0
-40 -44 0
43 -44 0
40 -43 44 0
c gate 45 -4 20 0
-4 -45 0
20 -45 0
4 -20 45 0
c gate 46 -3 19 0
-3 -46 0
19 -46 0
3 -19 46 0
c gate 47 -45 -46 0
-45 -47 0
-46 -47 0
45 46 47 0
c gate 48 -44 47 0
-44 -48 0
47 -48 0
44 -47 48 0
c gate 49 5 -21 0
5 -49 0
-21 -49 0
-5 21 49 0
c gate 50 4 -20 0
4 -50 0
-20 -50 0
-4 20 50 0
c gate 51 -49 -50 0
-49 -51 0
-50 -51 0
49 50 51 0
c gate 52 -48 51 0
-48 -52 0
51 -52 0
48 -51 52 0
c gate 53 -6 -22 0
-6 -53 0
-22 -53 0
6 22 53 0
c gate 54 6 22 0
6 -54 0
22 -54 0
-6 -22 54 0
c gate 55 -53 -54 0
-53 -55 0
-54 -55 0
53 54 55 0
c gate 56 -5 21 0
-5 -56 0
21 -56 0
5 -21 56 0
c gate 57 -55 -56 0
-55 -57 0
-56 -57 0
55 56 57 0
c gate 58 -52 57 0
-52 -58 0
57 -58 0
52 -57 58 0
c gate 59 7 -23 0
7 -59 0
-23 -59 0
-7 23 59 0
c gate 60 6 -22 0
6 -60 0
-22 -60 0
-6 22 60 0
c gate 61 -59 -60 0
-59 -61 0
-60 -61 0
59 60 61 0
c gate 62 -58 61 0
-58 -62 0
61 -62 0
58 -61 62 0
c gate 63 -7 23 0
-7 -63 0
23 -63 0
7 -23 63 0
c gate 64 8 24 0
8 -64 0
24 -64 0
-8 -24 64 0
c gate 65 -8 -24 0
-8 -65 0
-24 -65 0
8 24 65 0
c gate 66 -64 -65 0
-64 -66 0
-65 -66 0
64 65 66 0
c gate 67 -63 -66 0
-63 -67 0
-66 -67 0
63 66 67 0
c gate 68 -62 67 0
-62 -68 0
67 -68 0
62 -67 68 0
c gate 69 8 -24 0
8 -69 0
-24 -69 0
-8 24 69 0
c gate 70 -68 -69 0
-68 -70 0
-69 -70 0
68 69 70 0
c gate 71 -37 -70 0
-37 -71 0
-70 -71 0
37 70 71 0
c gate 72 -34 -71 0
-34 -72 0
-71 -72 0
34 71 72 0
c gate 73 -33 -72 0
-33 -73 0
-72 -73 0
33 72 73 0
c gate 74 11 27 0
11 -74 0
27 -74 0
-11 -27 74 0
c gate 75 -11 -27 0
-11 -75 0
-27 -75 0
11 27 75 0
c gate 76 -74 -75 0
-74 -76 0
-75 -76 0
74 75 76 0
c gate 77 10 -26 0
10 -77 0
-26 -77 0
-10 26 77 0
c gate 78 -76 -77 0
-76 -78 0
-77 -78 0
76 77 78 0
c gate 79 -73 78 0
-73 -79 0
78 -79 0
73 -78 79 0
c gate 80 12 -28 0
12 -80 0
-28 -80 0
-12 28 80 0
c gate 81 -12 28 0
-12 -81 0
28 -81 0
12 -28 81 0
c gate 82 -80 -81 0
-80 -82 0
-81 -82 0
80 81 82 0
c gate 83 16 -32 0
16 -83 0
-32 -83 0
-16 32 83 0
c gate 84 -16 32 0
-16 -84 0
32 -84 0
16 -32 84 0
c gate 85 -83 -84 0
-83 -85 0
-84 -85 0
83 84 85 0
c gate 86 82 85 0
82 -86 0
85 -86 0
-82 -85 86 0
c gate 87 14 -30 0
14 -87 0
-30 -87 0
-14 30 87 0
c gate 88 -14 30 0
-14 -88 0
30 -88 0
14 -30 88 0
c gate 89 -87 -88 0
-87 -89 0
-88 -89 0
87 88 89 0
c gate 90 15 -31 0
15 -90 0
-31 -90 0
-15 31 90 0
c gate 91 -15 31 0
-15 -91 0
31 -91 0
15 -31 91 0
c gate 92 -90 -91 0
-90 -92 0
-91 -92 0
90 91 92 0
c gate 93 13 -29 0
13 -93 0
-29 -93 0
-13 29 93 0
c gate 94 -13 29 0
-13 -94 0
29 -94 0
13 -29 94 0
c gate 95 -93 -94 0
-93 -95 0
-94 -95 0
93 94 95 0
c gate 96 92 95 0
92 -96 0
95 -96 0
-92 -95 96 0
c gate 97 89 96 0
89 -97 0
96 -97 0
-89 -96 97 0
c gate 98 86 97 0
86 -98 0
97 -98 0
-86 -97 98 0
c gate 99 79 98 0
79 -99 0
98 -99 0
-79 -98 99 0
c PO
99 0
